S = 9;
start = [|0,0,0,4,0,0,0,1,0,0,0,0,0,0,0,0,39,0,0,0,24,0,0,73,0,0,0,56,58,7,14,0,0,0,29,0,0,0,0,0,59,77,3,0,0,0,60,0,0,0,45,0,52,30,0,68,0,0,0,0,0,0,0,0,0,9,65,69,0,0,0,10,2,0,81,0,6,0,0,0,15|
0,59,47,0,0,0,58,79,0,56,60,0,65,0,0,45,0,0,51,0,0,39,0,25,0,0,0,0,0,49,50,0,0,0,57,0,0,0,0,0,0,0,0,0,0,0,0,23,0,0,3,11,5,0,0,0,0,4,0,52,0,0,0,76,0,0,0,0,38,0,63,0,67,0,0,0,0,33,13,19,43|
5,77,0,11,0,41,0,0,0,0,7,74,25,72,58,22,0,0,0,48,0,0,0,0,0,52,38,51,0,0,0,0,0,0,0,0,0,78,57,6,0,0,0,60,0,0,20,67,17,0,0,0,46,0,0,0,9,0,71,0,44,0,0,0,0,55,56,31,39,0,0,15,0,0,21,0,68,0,0,0,64|
15,12,0,74,0,0,0,0,0,80,0,51,0,0,0,0,0,0,19,64,4,2,6,67,72,0,43,0,8,0,44,0,0,0,0,0,0,35,79,0,0,42,0,28,0,59,0,0,0,66,0,0,18,0,0,0,31,11,0,0,0,0,0,0,0,0,0,0,0,0,53,57,0,0,0,0,0,0,0,0,0|
0,0,0,9,56,17,0,0,0,0,0,69,0,0,78,0,0,0,66,0,0,0,0,0,33,0,55,0,0,0,22,4,0,0,0,12,19,0,0,0,0,0,41,0,0,7,34,0,0,0,0,0,57,0,21,60,0,40,0,51,0,0,3,0,0,0,47,36,0,68,0,0,0,46,8,0,14,80,44,76,0|
0,0,0,0,0,0,69,61,0,4,55,21,0,0,12,0,71,2,0,14,56,0,0,77,0,15,79,0,0,35,3,34,38,0,0,0,65,0,24,0,0,58,0,0,0,0,36,0,0,73,13,40,0,0,47,0,8,0,45,0,0,30,0,0,0,29,0,0,0,0,0,0,0,0,22,0,54,0,0,74,0|
0,0,0,0,0,0,0,62,0,0,0,0,41,0,0,47,0,0,0,0,11,0,0,0,0,7,0,74,0,54,0,0,0,0,0,18,0,0,52,0,43,40,0,81,0,56,0,0,16,0,0,8,2,0,22,5,0,0,0,0,78,55,0,0,0,25,6,14,0,26,0,3,79,0,0,28,0,0,0,0,0|
0,27,0,57,16,0,0,68,0,23,0,0,0,0,0,0,0,0,0,0,0,65,0,54,0,12,59,0,46,66,0,0,69,0,0,0,0,0,0,0,0,0,0,0,0,76,0,44,0,48,0,0,0,0,0,0,28,0,0,74,0,0,0,62,0,0,0,0,0,0,0,75,30,50,0,0,31,71,63,0,0|
60,78,0,0,0,0,0,0,8,0,0,0,0,0,0,0,0,0,0,22,37,9,3,10,0,30,0,0,0,71,0,0,0,6,76,0,0,80,16,39,74,0,47,0,61,0,0,0,58,14,0,12,0,0,0,67,79,0,1,0,65,0,56,0,0,0,13,0,0,0,0,0,52,0,0,0,0,77,27,0,0|
18,58,0,80,0,43,67,0,0,0,0,31,0,0,0,15,0,0,0,2,45,0,0,13,22,44,0,61,0,0,0,0,23,0,0,56,0,0,0,16,0,0,7,0,0,63,0,0,0,42,71,0,0,0,65,36,46,55,0,0,24,35,0,0,0,32,0,0,14,17,27,0,0,0,60,0,0,0,0,0,0|
0,0,0,62,0,0,0,0,64,39,30,0,0,0,0,0,0,22,0,68,10,33,0,0,0,0,61,49,0,37,19,0,0,0,0,0,0,18,0,65,29,0,0,0,0,0,27,12,15,0,0,0,0,9,57,73,0,66,60,0,0,38,51,75,26,0,46,0,0,0,0,0,0,0,0,8,0,0,0,0,0|
0,61,46,66,0,0,0,0,0,0,42,44,0,0,0,20,0,0,56,0,21,63,43,0,0,65,0,7,0,5,0,0,0,0,0,0,0,0,0,32,45,0,0,0,27,0,0,0,67,0,53,0,0,39,0,58,0,75,0,22,62,74,0,0,81,0,0,0,0,0,0,0,0,0,28,0,0,0,30,0,0|
0,0,44,0,0,0,35,0,9,0,25,0,0,0,0,0,23,57,0,78,0,0,0,3,0,34,0,0,0,0,0,2,0,33,0,0,0,21,0,62,0,0,0,0,0,0,0,0,0,0,0,0,20,0,19,0,0,0,81,43,37,80,31,1,12,63,0,79,58,0,7,0,70,0,39,0,69,15,0,47,0|
8,69,59,0,68,0,65,0,26,0,34,18,0,54,0,70,0,0,53,0,0,58,0,0,0,0,7,0,0,0,0,9,0,0,0,0,0,77,0,0,0,0,71,0,1,0,0,80,0,23,0,0,17,61,6,0,0,0,0,47,5,28,0,0,0,0,42,0,0,0,0,0,0,0,27,73,0,29,2,0,22|
0,0,0,0,17,42,6,0,0,0,0,0,0,36,0,78,0,0,0,0,30,0,0,75,0,0,0,0,0,0,0,43,0,22,0,0,47,0,0,0,2,49,0,63,0,5,0,74,0,0,0,79,0,0,1,0,0,0,0,0,0,0,0,0,0,0,0,0,0,0,0,0,80,37,0,0,0,66,0,0,0|
0,0,48,49,0,0,28,0,0,0,0,0,0,80,17,0,0,7,0,0,0,5,0,52,0,0,0,0,0,72,0,0,0,0,0,0,0,0,0,33,0,43,0,0,46,0,0,41,0,59,0,0,11,0,68,0,0,0,0,76,20,0,0,0,29,0,0,0,23,0,50,0,0,0,0,45,0,6,9,0,65|
2,0,0,0,0,0,33,0,23,38,0,0,0,0,27,72,0,0,0,0,54,8,80,0,0,0,0,0,0,48,0,0,0,0,0,71,0,0,0,53,0,20,15,0,0,35,57,0,45,0,29,43,0,73,0,0,0,0,0,16,0,0,0,10,3,44,31,0,0,28,5,0,76,55,0,74,0,0,0,0,0|
0,0,0,0,0,0,0,0,0,0,59,0,0,0,0,0,0,0,0,0,0,28,12,0,0,50,0,57,0,0,74,0,75,0,30,0,26,0,0,66,0,0,0,6,24,19,14,0,0,0,0,0,37,0,0,0,0,0,72,0,0,0,0,0,15,67,0,0,0,0,0,0,0,0,0,0,0,0,0,0,0|
25,0,0,0,22,0,0,0,27,0,79,0,0,13,0,0,0,0,0,54,31,0,0,0,67,0,47,66,0,0,23,0,4,0,0,0,0,62,78,41,52,0,0,0,0,0,0,15,21,0,70,0,0,26,73,35,40,74,39,0,0,72,0,11,46,58,0,81,0,0,56,0,0,0,0,44,0,0,55,0,0|
0,0,0,0,0,0,0,0,38,0,0,77,0,0,0,0,0,0,22,0,0,34,0,0,0,0,0,48,9,0,0,0,35,0,0,0,40,67,51,36,16,0,0,0,0,20,32,0,0,0,10,0,0,62,0,24,4,31,37,13,0,66,0,0,0,1,0,0,0,0,18,0,27,0,53,0,0,14,0,0,0|
0,0,0,0,40,0,46,0,0,55,61,0,0,15,0,38,0,23,0,1,42,0,0,0,41,24,0,11,0,0,5,0,0,0,0,0,0,0,56,0,0,0,0,0,0,0,0,0,80,33,0,0,28,0,0,65,0,60,0,0,0,0,71,31,73,0,3,50,0,0,0,0,0,2,0,0,13,0,0,59,0|
0,0,17,0,53,0,0,66,0,0,0,0,70,0,0,63,64,0,0,0,0,0,0,39,0,78,62,71,0,0,0,28,21,8,0,80,0,72,37,0,79,0,33,0,0,0,0,9,0,0,0,0,0,0,0,0,2,0,0,0,0,0,0,0,0,0,0,68,32,19,0,0,61,0,0,40,0,0,76,0,46|
0,0,0,0,0,0,0,0,32,0,0,66,0,0,0,50,0,69,3,0,0,0,0,0,0,0,4,6,0,0,51,0,0,31,15,29,0,0,0,0,0,0,0,0,26,0,72,0,56,0,19,55,14,0,0,0,0,81,30,0,0,0,47,0,0,0,0,77,80,41,76,0,0,36,0,17,64,0,0,23,68|
0,0,0,0,73,15,0,0,0,0,68,59,0,0,0,19,20,32,0,30,66,49,25,33,0,6,0,0,0,0,0,0,46,61,0,0,0,0,0,24,0,0,5,0,0,0,0,0,0,44,0,1,0,60,0,0,0,0,67,0,0,0,53,0,57,64,52,0,0,79,0,0,62,0,38,0,0,0,21,0,58|
19,0,0,14,43,78,0,0,30,0,0,37,27,57,34,5,0,0,0,0,0,10,0,0,0,0,51,3,0,50,0,0,0,49,0,0,0,0,0,0,0,0,1,0,0,0,53,2,0,47,18,24,0,0,0,0,62,63,61,0,68,0,0,0,0,0,0,0,26,0,0,0,54,0,0,29,12,0,0,0,0|
0,0,28,3,31,0,0,9,0,0,58,0,10,73,0,0,67,0,0,0,0,0,18,68,0,2,74,0,0,0,0,0,62,0,39,0,0,0,0,0,38,54,0,12,0,41,0,0,63,0,78,0,0,52,0,0,20,0,0,0,0,0,0,0,0,0,0,0,0,71,61,0,0,43,0,0,0,0,5,0,0|
0,76,0,0,0,0,0,0,5,0,2,60,0,0,0,28,30,0,0,0,0,0,15,0,56,0,23,0,81,0,27,0,0,0,78,0,0,39,66,0,0,0,0,64,0,79,0,0,0,0,36,22,0,0,14,41,50,34,0,0,52,19,0,0,0,0,0,0,62,0,37,0,0,0,57,0,0,0,0,0,9|
0,0,22,35,0,0,0,45,4,0,17,52,0,5,47,0,0,0,0,0,0,0,39,36,0,0,33,0,6,0,0,80,0,78,19,23,0,0,55,0,0,0,0,46,0,0,0,29,43,0,0,0,0,0,0,15,0,12,0,0,0,0,0,72,0,31,50,0,0,0,73,20,58,0,0,0,66,0,0,18,2|
0,0,0,0,0,0,10,0,0,0,0,0,0,0,0,0,0,0,0,0,0,0,0,0,0,81,0,0,0,56,59,68,70,0,0,65,69,0,73,0,0,0,18,0,80,0,62,57,0,0,0,0,0,16,43,13,22,64,2,0,40,3,5,41,0,60,61,0,0,0,0,0,35,0,0,79,0,52,0,54,12|
54,0,0,0,0,48,0,0,20,0,44,57,0,0,0,0,0,0,0,37,35,45,52,49,30,0,0,0,11,16,0,38,0,0,0,0,0,81,0,0,0,0,64,0,58,0,39,0,0,0,66,0,59,78,0,4,0,0,0,0,0,0,0,0,0,0,0,0,0,70,80,0,13,5,65,68,32,0,1,0,0|
72,0,0,0,23,0,56,73,0,0,0,0,0,0,0,0,13,0,0,59,0,32,5,0,0,0,42,30,0,0,0,41,0,58,0,61,0,0,0,0,7,0,0,20,44,0,0,18,0,36,0,4,45,0,80,0,0,33,0,46,0,70,65,0,52,0,40,54,81,0,0,0,10,17,0,0,0,55,0,6,48|
46,0,0,37,0,8,0,78,0,0,51,29,0,0,62,39,79,0,0,0,0,25,73,2,0,0,0,0,64,0,75,0,54,0,0,0,0,0,14,0,0,19,0,56,0,0,0,24,81,32,61,68,23,0,0,0,63,0,0,0,0,0,0,0,0,0,0,45,0,0,0,0,0,0,15,0,0,0,0,0,0|
74,13,0,0,0,0,0,39,0,60,0,15,0,0,0,80,4,0,0,0,0,0,0,0,0,61,0,22,12,73,0,77,14,0,0,0,0,0,76,0,0,0,66,0,0,0,0,0,0,0,0,48,55,20,37,0,0,0,23,0,0,32,0,0,0,0,0,0,0,0,0,43,0,0,0,34,0,0,0,30,31|
0,75,16,79,0,67,0,43,69,10,0,32,73,0,72,58,0,0,0,53,76,0,0,0,8,0,0,0,0,0,0,5,0,13,7,0,78,0,0,0,36,0,0,0,6,31,0,0,0,80,0,51,0,49,66,42,0,0,0,0,39,0,0,19,0,0,0,0,0,33,17,65,0,0,0,0,0,64,0,0,0|
0,0,0,58,0,0,0,0,0,20,0,0,0,0,0,0,40,30,0,0,57,0,50,0,0,0,0,0,28,0,48,79,33,0,18,35,0,63,0,0,0,51,0,0,0,73,0,7,69,12,0,41,19,0,59,0,0,78,62,0,0,0,49,0,74,0,0,0,0,4,0,24,0,22,0,72,80,0,11,0,0|
0,0,0,0,0,0,2,33,14,0,0,0,37,65,0,0,0,12,43,71,0,0,0,0,0,0,22,0,0,0,0,0,49,3,50,72,24,74,25,13,15,0,0,0,0,10,5,0,0,0,67,30,0,0,81,0,0,0,0,0,41,0,36,0,0,0,0,0,0,76,69,64,0,0,0,0,0,0,0,46,0|
0,33,0,0,0,29,53,0,0,0,18,0,0,0,0,74,25,0,59,26,0,19,0,0,0,0,0,8,0,0,0,13,0,0,0,4,0,0,45,0,0,0,75,0,0,0,0,68,47,0,22,0,0,63,0,78,77,0,17,0,0,69,0,0,0,6,0,0,42,57,0,0,0,0,31,76,0,0,0,0,0|
0,5,68,0,0,0,0,0,0,0,27,0,0,0,0,17,34,0,0,0,63,52,0,0,46,76,0,0,0,26,78,23,37,0,3,0,9,65,0,0,0,0,0,0,0,0,0,0,53,62,55,0,51,0,0,0,45,0,0,0,80,0,0,0,67,18,0,64,0,58,66,16,0,0,0,6,0,75,0,0,0|
35,0,0,0,0,81,0,0,0,0,0,20,0,9,0,0,0,0,23,0,36,56,47,72,0,0,0,0,0,0,32,0,0,0,0,0,38,43,0,0,0,17,0,48,63,0,0,0,18,0,0,80,0,27,50,0,0,76,0,26,0,0,0,0,0,39,77,0,0,0,54,12,0,57,19,0,0,25,51,0,0|
65,48,0,0,0,72,41,0,0,0,14,33,29,0,0,0,0,0,0,0,0,0,55,78,39,0,0,79,61,0,12,0,16,7,0,0,27,52,0,0,0,0,57,0,34,0,69,42,0,1,0,0,0,0,0,47,0,0,0,0,0,0,8,0,0,74,43,38,45,0,0,0,59,0,0,0,0,0,0,0,0|
0,18,0,0,0,9,43,8,0,67,0,0,0,48,57,0,49,3,0,0,73,0,0,0,0,40,0,0,5,0,0,0,0,0,0,66,0,25,0,72,0,10,0,61,23,0,0,0,0,0,7,0,0,75,0,44,0,0,0,0,58,52,0,0,0,0,0,71,59,30,13,0,12,0,0,32,0,0,0,22,69|
0,66,0,0,0,0,0,0,0,0,0,0,0,43,0,0,0,0,0,80,0,13,8,0,0,0,0,15,44,6,0,0,57,62,0,55,3,32,0,0,0,0,0,0,0,0,0,0,0,17,0,35,0,77,0,19,0,0,0,0,0,0,61,0,0,50,0,47,76,0,0,41,63,4,0,48,73,65,0,0,0|
0,0,0,0,0,0,13,0,0,0,0,55,0,44,0,0,0,0,74,0,0,50,0,34,43,0,0,0,0,31,0,0,80,0,0,0,0,0,0,12,73,24,6,11,66,45,8,49,72,2,0,0,76,0,0,0,0,0,0,65,0,0,0,0,0,17,29,0,0,0,0,0,77,0,0,0,0,0,0,0,30|
0,0,0,0,0,0,26,46,0,0,0,0,22,0,0,77,0,0,0,0,60,0,0,0,0,66,0,0,0,0,0,75,0,0,0,0,0,68,0,0,0,0,0,0,0,0,0,0,0,0,23,36,0,21,0,0,12,0,0,70,0,0,32,0,25,8,53,34,0,0,0,73,47,52,0,13,40,0,0,0,0|
0,0,0,16,0,73,0,0,76,0,15,0,0,56,0,0,78,0,25,70,0,71,0,0,0,0,35,14,27,1,67,17,0,0,0,0,18,0,0,2,0,0,0,40,0,0,0,34,0,52,0,0,0,0,75,0,0,0,0,0,0,81,41,0,0,0,37,72,0,63,0,0,0,0,0,0,43,0,0,0,54|
16,1,0,0,0,38,0,0,18,5,0,14,12,0,33,0,80,0,81,76,0,51,0,0,0,0,0,0,37,0,52,60,0,0,28,67,77,0,29,19,0,0,0,24,17,0,25,0,55,0,0,47,0,46,0,0,0,3,54,0,0,0,72,6,13,0,0,27,68,0,0,0,43,21,34,0,0,8,0,35,0|
0,62,63,0,0,0,0,0,0,0,0,3,0,0,0,53,60,0,46,0,33,0,0,0,18,0,0,0,0,0,49,0,0,4,0,0,0,47,0,0,0,0,0,68,0,65,64,0,0,50,14,75,1,6,0,51,0,15,0,7,0,0,44,0,0,0,55,0,0,0,10,19,0,0,0,0,0,0,52,0,0|
80,0,30,0,36,68,76,6,61,0,0,0,0,0,0,0,0,54,0,0,2,0,0,22,0,62,0,0,39,55,0,0,0,0,0,0,13,69,64,81,0,0,0,0,0,0,0,31,0,0,12,23,0,0,17,0,0,46,0,42,34,0,0,52,0,0,14,0,0,59,0,0,19,0,0,0,0,0,0,77,53|
79,0,0,0,0,0,0,0,0,0,73,64,0,32,0,0,18,59,38,69,0,54,0,0,29,9,34,0,53,3,71,61,0,0,1,0,0,0,31,0,0,15,30,35,16,0,0,0,0,43,0,0,0,76,0,0,66,0,36,14,0,45,0,0,17,0,0,0,0,50,0,78,68,0,6,0,56,58,0,75,0|
0,0,0,0,0,59,54,0,0,0,0,0,61,42,0,0,75,0,0,0,1,41,0,0,0,43,20,0,50,47,0,0,13,0,0,0,0,0,0,0,0,62,46,0,49,67,3,0,0,38,0,0,27,0,79,0,0,25,0,0,0,0,0,0,0,0,23,0,0,0,12,71,0,65,0,0,48,0,0,0,0|
75,0,0,0,0,28,0,0,52,0,0,7,0,0,0,68,27,0,0,0,0,60,0,23,0,0,0,0,45,44,0,0,0,10,0,74,0,76,63,0,0,0,22,0,0,21,0,0,0,0,80,0,0,0,0,0,0,37,53,0,32,0,70,0,0,0,62,46,0,47,29,0,0,66,17,0,59,0,15,36,0|
20,0,56,39,65,0,0,55,0,0,0,25,13,30,6,0,0,0,0,0,0,0,0,0,0,17,40,9,31,76,0,0,0,0,0,0,0,0,23,0,0,0,0,0,11,0,0,0,32,7,15,0,0,0,0,0,0,0,5,27,0,0,0,0,0,0,0,0,0,0,35,0,60,0,0,51,0,0,0,72,0|
0,73,66,0,0,70,0,74,0,57,0,0,0,0,46,0,0,0,0,42,0,0,0,0,53,0,0,0,0,64,0,0,43,65,0,0,72,28,39,0,37,59,0,67,0,11,0,61,13,0,0,0,0,0,0,0,0,0,0,0,0,6,16,54,56,0,44,0,0,49,15,38,24,14,55,0,0,0,0,0,0|
17,0,14,72,0,0,0,32,53,0,11,0,0,76,0,24,28,0,0,0,0,0,0,0,35,80,13,46,0,0,0,29,0,0,25,15,0,1,0,0,0,0,27,57,0,34,73,52,0,8,0,16,33,44,0,71,0,0,0,0,26,39,0,3,41,0,0,0,0,0,0,70,0,0,45,47,0,0,0,9,0|
0,0,0,28,5,0,0,0,2,0,78,0,0,0,0,0,0,77,0,0,0,0,0,74,0,0,63,23,40,0,0,58,0,75,12,0,71,0,0,0,0,6,0,19,0,0,79,0,0,0,0,67,50,0,0,69,0,0,0,0,0,60,0,0,0,0,0,0,0,0,1,21,0,33,0,0,0,0,64,0,45|
0,0,0,0,9,0,0,0,0,0,0,36,71,0,0,0,43,10,34,0,0,0,0,0,0,0,0,0,0,0,0,69,0,0,0,0,25,0,5,77,51,0,0,66,62,52,65,45,59,0,0,0,0,0,0,0,74,8,68,35,0,0,12,0,0,47,17,0,0,0,0,0,1,0,14,0,0,18,0,0,0|
0,0,0,22,10,0,0,12,0,0,31,41,0,0,0,0,0,0,0,28,0,0,0,0,0,64,44,24,0,0,0,0,0,17,66,0,0,0,81,26,11,21,0,7,0,36,23,0,0,0,0,46,0,0,0,0,0,5,0,0,0,0,57,0,0,0,15,0,50,0,0,0,0,0,0,0,0,35,54,0,67|
76,0,0,0,0,0,0,0,72,58,0,0,0,40,0,57,37,0,0,0,0,66,13,0,0,0,0,26,0,0,64,67,30,15,0,0,0,46,65,0,0,0,0,78,0,0,48,11,0,0,0,9,0,4,36,0,0,1,0,0,0,16,0,69,5,59,0,0,0,0,0,74,0,68,50,0,0,0,0,0,63|
67,0,0,33,37,0,59,0,0,0,13,0,0,25,0,34,0,0,0,0,0,0,0,0,15,1,0,0,0,0,72,0,0,46,61,0,0,10,0,0,41,0,40,44,0,80,30,0,0,26,0,39,3,0,51,53,0,0,73,31,0,18,77,64,19,36,4,58,0,0,0,0,7,0,0,71,0,56,78,0,21|
0,0,25,0,69,0,75,0,0,59,12,0,64,61,32,0,0,66,0,36,0,0,0,0,0,0,0,0,0,57,0,0,0,0,0,0,58,8,0,0,67,0,0,0,0,0,7,0,0,0,0,31,0,0,0,17,0,0,0,37,0,26,0,60,0,0,68,0,0,0,0,0,15,0,0,38,11,0,0,0,0|
0,57,24,0,21,36,0,0,0,0,0,17,63,23,0,0,29,0,77,0,16,30,20,14,0,33,0,59,0,74,0,0,0,0,0,0,0,15,0,0,0,0,0,0,0,0,68,1,0,0,41,0,0,0,0,34,0,13,0,0,0,0,39,0,0,0,0,65,0,3,0,0,81,0,80,5,25,69,53,0,0|
0,0,0,1,27,0,0,0,41,0,67,26,0,6,0,0,0,0,0,0,0,0,0,0,0,0,73,13,56,0,39,0,44,0,0,0,0,0,9,0,69,18,0,0,0,71,0,5,0,0,0,54,0,0,15,0,0,7,10,50,0,79,0,0,0,0,0,12,0,0,34,0,0,0,0,77,72,0,4,40,0|
53,0,0,0,0,0,0,0,0,0,0,0,0,0,0,0,0,0,32,0,0,0,68,0,0,0,21,0,0,65,45,0,0,0,0,9,0,0,0,17,39,36,16,0,0,0,0,0,0,0,33,0,0,0,0,27,0,0,0,0,76,0,80,0,0,0,0,8,6,0,0,0,0,0,0,0,0,0,46,12,0|
11,15,41,0,0,0,0,0,0,0,0,0,31,4,0,0,0,0,63,0,7,0,81,0,45,0,36,64,0,0,0,21,0,37,0,51,0,49,0,0,65,0,78,80,0,0,40,0,61,60,77,14,13,8,0,1,0,0,0,0,69,17,0,0,0,26,34,0,0,0,0,0,0,0,0,52,57,0,0,10,55|
38,0,3,17,32,0,0,58,0,0,0,5,0,53,0,26,41,0,0,19,75,43,0,0,0,8,0,33,4,18,0,78,0,0,49,0,0,7,1,0,0,0,42,0,0,0,0,25,0,34,0,0,79,28,52,0,72,48,77,44,47,0,73,0,69,0,0,63,0,0,31,0,0,0,13,0,0,0,0,0,74|
0,0,0,10,0,0,39,0,0,0,52,0,0,0,0,62,0,0,50,55,0,0,0,71,0,22,0,0,0,0,0,0,53,45,0,32,0,0,72,0,0,41,0,25,0,0,0,4,57,0,0,56,12,33,31,0,7,0,0,49,0,65,0,0,0,54,0,0,15,0,0,0,0,0,0,0,1,68,0,0,0|
42,0,0,0,0,0,0,0,75,0,1,0,20,0,39,0,0,0,0,0,0,0,26,46,0,0,0,0,0,43,0,36,0,81,0,0,55,13,0,34,0,31,0,47,0,44,0,0,0,0,0,45,0,23,0,0,51,6,0,8,64,0,15,0,77,0,28,4,0,29,0,0,21,0,0,0,0,0,0,3,66|
0,43,0,0,0,0,0,0,73,0,0,72,0,0,8,60,0,48,0,0,0,62,0,29,0,0,0,0,0,0,0,0,1,0,0,0,0,56,0,11,33,57,53,0,0,55,19,0,0,5,0,0,0,0,0,20,0,28,0,0,71,4,0,45,0,46,0,0,0,12,0,0,0,0,0,0,22,0,31,0,0|
0,28,31,0,0,0,0,53,65,17,45,0,21,34,14,44,11,0,0,39,0,57,0,0,0,51,0,73,69,22,9,0,40,0,0,0,4,36,0,54,0,46,0,0,37,68,0,0,0,35,0,0,32,0,0,0,0,0,3,0,0,5,0,0,0,80,0,0,20,0,33,0,0,0,0,0,61,0,16,67,0|
0,0,0,71,0,0,0,0,0,0,0,0,0,59,0,0,0,63,67,33,0,0,0,0,0,0,0,0,54,0,0,0,74,35,55,0,0,79,0,0,0,0,0,0,0,0,0,76,1,0,0,0,73,0,0,0,36,0,0,40,12,0,14,57,49,0,8,70,0,48,0,0,0,0,26,0,0,0,41,58,0|
0,0,0,7,0,76,0,63,0,0,49,0,0,0,0,10,0,0,0,0,78,40,0,58,0,0,54,44,24,14,0,0,0,0,62,0,0,0,0,0,0,0,0,0,20,0,0,0,66,0,42,26,0,53,0,32,0,0,0,0,33,46,0,0,0,0,0,0,21,81,0,0,0,0,0,0,4,0,12,2,60|
0,0,0,0,18,12,4,0,0,81,0,0,0,0,37,0,0,0,0,0,0,0,14,61,44,0,17,0,57,27,0,0,0,0,10,0,0,0,0,69,0,0,0,0,0,0,16,0,0,0,74,20,7,0,54,0,0,9,19,0,0,0,0,25,6,0,72,0,13,0,0,11,0,0,0,0,0,0,0,48,0|
0,79,0,0,35,31,0,0,0,0,16,40,76,27,0,0,0,0,62,23,0,15,0,0,0,0,0,0,36,0,41,12,0,0,0,14,17,0,0,0,21,0,0,65,8,0,52,0,42,57,0,0,0,7,0,0,0,0,0,0,0,67,4,0,0,0,0,2,75,0,0,25,44,0,72,22,0,0,0,0,0|
0,0,9,0,13,0,0,76,0,0,0,0,0,37,0,2,0,0,48,0,0,0,0,0,0,0,0,39,0,0,0,73,10,44,0,0,0,0,0,0,0,0,36,0,0,0,0,0,0,0,8,0,53,0,0,0,0,0,63,0,0,54,0,0,47,0,49,3,0,20,0,0,0,0,24,0,0,0,0,0,0|
0,0,0,0,0,0,49,0,0,0,32,0,19,0,0,0,38,24,0,0,0,22,7,0,61,0,67,18,0,0,0,3,0,51,0,0,0,54,0,0,0,0,26,76,0,4,0,0,40,72,0,0,0,36,0,0,1,0,0,0,0,44,0,0,0,0,59,0,0,0,14,0,0,25,0,0,0,0,0,0,0|
0,0,0,47,0,22,38,70,1,0,0,67,0,0,0,46,0,60,0,0,39,0,0,0,0,29,19,0,78,21,0,64,72,0,43,0,48,0,0,42,0,0,0,4,73,37,0,0,0,0,0,0,49,0,0,0,0,0,0,0,0,0,0,0,0,65,0,0,0,8,0,0,0,3,0,0,0,13,0,11,0|
45,25,0,0,0,0,16,0,12,0,0,58,0,63,0,0,0,0,0,0,0,0,0,0,0,0,76,0,59,0,0,1,0,47,0,5,49,0,0,0,0,0,0,0,39,0,0,0,31,0,0,0,0,41,0,0,0,0,32,0,46,0,34,0,10,35,0,43,64,6,0,0,0,81,0,37,0,0,0,0,0|
0,0,29,0,0,0,0,0,0,0,0,0,0,0,0,54,0,0,11,0,0,0,0,0,74,0,8,40,0,0,0,66,67,71,0,49,0,0,0,0,9,0,13,31,0,16,43,63,0,55,0,0,68,18,26,0,0,73,0,56,75,7,0,0,30,27,0,76,0,23,0,69,0,0,0,0,0,0,0,0,0|
0,6,75,0,59,0,37,0,67,0,0,0,0,14,0,66,0,0,68,0,0,0,0,0,0,56,0,0,74,0,8,0,0,0,48,60,81,0,0,0,18,7,0,0,0,0,80,22,0,0,0,0,0,0,0,0,0,0,33,0,0,0,62,0,21,0,0,13,0,0,0,0,0,0,0,0,0,40,0,45,0|
0,0,0,0,0,0,0,19,0,43,47,68,0,0,65,0,0,0,0,0,0,0,78,0,0,0,69,0,35,0,63,0,24,0,0,0,11,20,0,0,53,0,0,0,0,0,0,0,34,3,60,70,0,56,0,0,0,0,0,66,2,25,0,42,0,77,0,0,22,0,0,0,0,75,4,0,52,0,8,0,1|
77,0,18,0,0,0,0,0,0,0,41,0,50,0,0,0,0,78,0,13,0,26,0,60,4,0,0,31,0,17,0,0,65,0,23,0,67,0,0,0,80,0,43,0,0,0,35,0,0,0,0,0,0,0,16,0,0,0,8,21,0,0,0,0,36,15,0,40,0,56,0,46,0,0,0,0,0,0,49,0,79|];